rcpsp/heur_output_bi_constraints/Log=2/heurj60.txt
encoding rcpsp/j60.sm/j6017_3.sm nv: 136136 nc: 366684 enctime: 4.18
encoding rcpsp/j60.sm/j6017_3.sm nv: 39644 nc: 104814 enctime: 0.68
c File: j6017_3.smnaivebi2.wcnf
c optimal
c final solution cost: 77
c CPU time: 7.346610
s OPTIMUM FOUND

c File: j6017_3.smbi2.wcnf
c optimal
c final solution cost: 77
c CPU time: 0.690366
s OPTIMUM FOUND


rcpsp/heur_output_bi_constraints/Log=2/heurj60.txt
encoding rcpsp/j60.sm/j6017_4.sm nv: 113526 nc: 287058 enctime: 3.02
encoding rcpsp/j60.sm/j6017_4.sm nv: 32277 nc: 80103 enctime: 0.51
c File: j6017_4.smnaivebi2.wcnf
c optimal
c final solution cost: 71
c CPU time: 0.771522
s OPTIMUM FOUND

c File: j6017_4.smbi2.wcnf
c optimal
c final solution cost: 71
c CPU time: 0.184840
s OPTIMUM FOUND


rcpsp/heur_output_bi_constraints/Log=2/heurj60.txt
encoding rcpsp/j60.sm/j6017_5.sm nv: 115368 nc: 276184 enctime: 2.70
encoding rcpsp/j60.sm/j6017_5.sm nv: 29678 nc: 69749 enctime: 0.43
c File: j6017_5.smnaivebi2.wcnf
c optimal
c final solution cost: 51
c CPU time: 1.661871
s OPTIMUM FOUND

c File: j6017_5.smbi2.wcnf
c optimal
c final solution cost: 51
c CPU time: 0.209454
s OPTIMUM FOUND


rcpsp/heur_output_bi_constraints/Log=2/heurj60.txt
encoding rcpsp/j60.sm/j6017_6.sm nv: 123968 nc: 304048 enctime: 3.05
encoding rcpsp/j60.sm/j6017_6.sm nv: 37440 nc: 90432 enctime: 0.57
c File: j6017_6.smnaivebi2.wcnf
c optimal
c final solution cost: 59
c CPU time: 8.616953
s OPTIMUM FOUND

c File: j6017_6.smbi2.wcnf
c optimal
c final solution cost: 59
c CPU time: 0.235365
s OPTIMUM FOUND


rcpsp/heur_output_bi_constraints/Log=2/heurj60.txt
encoding rcpsp/j60.sm/j6017_7.sm nv: 128880 nc: 346458 enctime: 3.90
encoding rcpsp/j60.sm/j6017_7.sm nv: 37080 nc: 97833 enctime: 0.63
c File: j6017_7.smnaivebi2.wcnf
c optimal
c final solution cost: 69
c CPU time: 1.736769
s OPTIMUM FOUND

c File: j6017_7.smbi2.wcnf
c optimal
c final solution cost: 69
c CPU time: 0.482771
s OPTIMUM FOUND


rcpsp/heur_output_bi_constraints/Log=2/heurj60.txt
encoding rcpsp/j60.sm/j6017_8.sm nv: 119160 nc: 315401 enctime: 3.48
encoding rcpsp/j60.sm/j6017_8.sm nv: 33480 nc: 86921 enctime: 0.56
c File: j6017_8.smnaivebi2.wcnf
c optimal
c final solution cost: 69
c CPU time: 8.743291
s OPTIMUM FOUND

c File: j6017_8.smbi2.wcnf
c optimal
c final solution cost: 69
c CPU time: 10.119028
s OPTIMUM FOUND


rcpsp/heur_output_bi_constraints/Log=2/heurj60.txt
encoding rcpsp/j60.sm/j6017_9.sm nv: 112081 nc: 296806 enctime: 3.32
encoding rcpsp/j60.sm/j6017_9.sm nv: 31577 nc: 81974 enctime: 0.53
c File: j6017_9.smnaivebi2.wcnf
c optimal
c final solution cost: 70
c CPU time: 1.986727
s OPTIMUM FOUND

c File: j6017_9.smbi2.wcnf
c optimal
c final solution cost: 70
c CPU time: 0.307543
s OPTIMUM FOUND


rcpsp/heur_output_bi_constraints/Log=2/heurj60.txt
encoding rcpsp/j60.sm/j601_7.sm nv: 122436 nc: 316733 enctime: 3.30
encoding rcpsp/j60.sm/j601_7.sm nv: 28998 nc: 73220 enctime: 0.45
c File: j601_7.smnaivebi2.wcnf
c optimal
c final solution cost: 59
c CPU time: 2.118386
s OPTIMUM FOUND

c File: j601_7.smbi2.wcnf
c optimal
c final solution cost: 59
c CPU time: 0.413732
s OPTIMUM FOUND


rcpsp/heur_output_bi_constraints/Log=2/heurj60.txt
encoding rcpsp/j60.sm/j6018_10.sm nv: 173568 nc: 447054 enctime: 4.88
encoding rcpsp/j60.sm/j6018_10.sm nv: 42488 nc: 107174 enctime: 0.66
c File: j6018_10.smnaivebi2.wcnf
c optimal
c final solution cost: 82
c CPU time: 1.152688
s OPTIMUM FOUND

c File: j6018_10.smbi2.wcnf
c optimal
c final solution cost: 82
c CPU time: 0.149387
s OPTIMUM FOUND


rcpsp/heur_output_bi_constraints/Log=2/heurj60.txt
encoding rcpsp/j60.sm/j6018_1.sm nv: 139527 nc: 350175 enctime: 3.69
encoding rcpsp/j60.sm/j6018_1.sm nv: 41481 nc: 102369 enctime: 0.80
c File: j6018_1.smnaivebi2.wcnf
c optimal
c final solution cost: 71
c CPU time: 1.054280
s OPTIMUM FOUND

c File: j6018_1.smbi2.wcnf
c optimal
c final solution cost: 71
c CPU time: 0.226364
s OPTIMUM FOUND


rcpsp/heur_output_bi_constraints/Log=2/heurj60.txt
encoding rcpsp/j60.sm/j6018_2.sm nv: 167670 nc: 412424 enctime: 4.35
encoding rcpsp/j60.sm/j6018_2.sm nv: 33048 nc: 79193 enctime: 0.51
c File: j6018_2.smnaivebi2.wcnf
c optimal
c final solution cost: 54
c CPU time: 1.111489
s OPTIMUM FOUND

c File: j6018_2.smbi2.wcnf
c optimal
c final solution cost: 54
c CPU time: 0.089532
s OPTIMUM FOUND


rcpsp/heur_output_bi_constraints/Log=2/heurj60.txt
encoding rcpsp/j60.sm/j6018_3.sm nv: 138993 nc: 343815 enctime: 3.61
encoding rcpsp/j60.sm/j6018_3.sm nv: 41568 nc: 101265 enctime: 0.64
c File: j6018_3.smnaivebi2.wcnf
c optimal
c final solution cost: 62
c CPU time: 1.091956
s OPTIMUM FOUND

c File: j6018_3.smbi2.wcnf
c optimal
c final solution cost: 62
c CPU time: 0.149605
s OPTIMUM FOUND


rcpsp/heur_output_bi_constraints/Log=2/heurj60.txt
encoding rcpsp/j60.sm/j6018_4.sm nv: 171308 nc: 440153 enctime: 4.77
encoding rcpsp/j60.sm/j6018_4.sm nv: 34352 nc: 85946 enctime: 0.54
c File: j6018_4.smnaivebi2.wcnf
c optimal
c final solution cost: 64
c CPU time: 1.133591
s OPTIMUM FOUND

c File: j6018_4.smbi2.wcnf
c optimal
c final solution cost: 64
c CPU time: 0.095161
s OPTIMUM FOUND


rcpsp/heur_output_bi_constraints/Log=2/heurj60.txt
encoding rcpsp/j60.sm/j6018_5.sm nv: 141036 nc: 347770 enctime: 3.64
encoding rcpsp/j60.sm/j6018_5.sm nv: 37230 nc: 90151 enctime: 0.57
c File: j6018_5.smnaivebi2.wcnf
c optimal
c final solution cost: 73
c CPU time: 1.440735
s OPTIMUM FOUND

c File: j6018_5.smbi2.wcnf
c optimal
c final solution cost: 73
c CPU time: 0.209408
s OPTIMUM FOUND


rcpsp/heur_output_bi_constraints/Log=2/heurj60.txt
encoding rcpsp/j60.sm/j6018_6.sm nv: 155685 nc: 373382 enctime: 3.78
encoding rcpsp/j60.sm/j6018_6.sm nv: 31525 nc: 73862 enctime: 0.48
c File: j6018_6.smnaivebi2.wcnf
c optimal
c final solution cost: 48
c CPU time: 2.601730
s OPTIMUM FOUND

c File: j6018_6.smbi2.wcnf
c optimal
c final solution cost: 48
c CPU time: 0.152001
s OPTIMUM FOUND


rcpsp/heur_output_bi_constraints/Log=2/heurj60.txt
encoding rcpsp/j60.sm/j6018_7.sm nv: 145820 nc: 353225 enctime: 3.60
encoding rcpsp/j60.sm/j6018_7.sm nv: 41400 nc: 98758 enctime: 0.61
c File: j6018_7.smnaivebi2.wcnf
c optimal
c final solution cost: 70
c CPU time: 8.851226
s OPTIMUM FOUND

c File: j6018_7.smbi2.wcnf
c optimal
c final solution cost: 70
c CPU time: 0.175607
s OPTIMUM FOUND


rcpsp/heur_output_bi_constraints/Log=2/heurj60.txt
encoding rcpsp/j60.sm/j6018_8.sm nv: 151970 nc: 377642 enctime: 3.91
encoding rcpsp/j60.sm/j6018_8.sm nv: 31395 nc: 76072 enctime: 0.48
c File: j6018_8.smnaivebi2.wcnf
c optimal
c final solution cost: 66
c CPU time: 0.966332
s OPTIMUM FOUND

c File: j6018_8.smbi2.wcnf
c optimal
c final solution cost: 66
c CPU time: 0.102445
s OPTIMUM FOUND


rcpsp/heur_output_bi_constraints/Log=2/heurj60.txt
encoding rcpsp/j60.sm/j6018_9.sm nv: 138689 nc: 347433 enctime: 3.61
encoding rcpsp/j60.sm/j6018_9.sm nv: 35196 nc: 86354 enctime: 0.54
c File: j6018_9.smnaivebi2.wcnf
c optimal
c final solution cost: 67
c CPU time: 0.998427
s OPTIMUM FOUND

c File: j6018_9.smbi2.wcnf
c optimal
c final solution cost: 67
c CPU time: 0.123815
s OPTIMUM FOUND


rcpsp/heur_output_bi_constraints/Log=2/heurj60.txt
encoding rcpsp/j60.sm/j601_8.sm nv: 135772 nc: 357015 enctime: 3.71
encoding rcpsp/j60.sm/j601_8.sm nv: 33197 nc: 85315 enctime: 0.51
c File: j601_8.smnaivebi2.wcnf
c optimal
c final solution cost: 65
c CPU time: 1.610861
s OPTIMUM FOUND

c File: j601_8.smbi2.wcnf
c optimal
c final solution cost: 65
c CPU time: 0.395634
s OPTIMUM FOUND


rcpsp/heur_output_bi_constraints/Log=2/heurj60.txt
encoding rcpsp/j60.sm/j6019_10.sm nv: 188720 nc: 448483 enctime: 4.41
encoding rcpsp/j60.sm/j6019_10.sm nv: 42000 nc: 97927 enctime: 0.61
c File: j6019_10.smnaivebi2.wcnf
c optimal
c final solution cost: 69
c CPU time: 0.969181
s OPTIMUM FOUND

c File: j6019_10.smbi2.wcnf
c optimal
c final solution cost: 69
c CPU time: 0.103891
s OPTIMUM FOUND


rcpsp/heur_output_bi_constraints/Log=2/heurj60.txt
encoding rcpsp/j60.sm/j6019_1.sm nv: 179958 nc: 427596 enctime: 4.32
encoding rcpsp/j60.sm/j6019_1.sm nv: 32574 nc: 75420 enctime: 0.49
c File: j6019_1.smnaivebi2.wcnf
c optimal
c final solution cost: 53
c CPU time: 1.301143
s OPTIMUM FOUND

c File: j6019_1.smbi2.wcnf
c optimal
c final solution cost: 53
c CPU time: 0.134280
s OPTIMUM FOUND


rcpsp/heur_output_bi_constraints/Log=2/heurj60.txt
encoding rcpsp/j60.sm/j6019_2.sm nv: 188123 nc: 471697 enctime: 5.05
encoding rcpsp/j60.sm/j6019_2.sm nv: 39920 nc: 97774 enctime: 0.63
c File: j6019_2.smnaivebi2.wcnf
c optimal
c final solution cost: 69
c CPU time: 1.195012
s OPTIMUM FOUND

c File: j6019_2.smbi2.wcnf
c optimal
c final solution cost: 69
c CPU time: 0.113721
s OPTIMUM FOUND


rcpsp/heur_output_bi_constraints/Log=2/heurj60.txt
encoding rcpsp/j60.sm/j6019_3.sm nv: 163917 nc: 404916 enctime: 4.23
encoding rcpsp/j60.sm/j6019_3.sm nv: 41096 nc: 99573 enctime: 0.63
c File: j6019_3.smnaivebi2.wcnf
c optimal
c final solution cost: 71
c CPU time: 1.077805
s OPTIMUM FOUND

c File: j6019_3.smbi2.wcnf
c optimal
c final solution cost: 71
c CPU time: 0.118519
s OPTIMUM FOUND


rcpsp/heur_output_bi_constraints/Log=2/heurj60.txt
encoding rcpsp/j60.sm/j6019_4.sm nv: 186296 nc: 431226 enctime: 4.11
encoding rcpsp/j60.sm/j6019_4.sm nv: 35040 nc: 79245 enctime: 0.51
c File: j6019_4.smnaivebi2.wcnf
c optimal
c final solution cost: 52
c CPU time: 0.924378
s OPTIMUM FOUND

c File: j6019_4.smbi2.wcnf
c optimal
c final solution cost: 52
c CPU time: 0.093457
s OPTIMUM FOUND


rcpsp/heur_output_bi_constraints/Log=2/heurj60.txt
encoding rcpsp/j60.sm/j6019_5.sm nv: 157740 nc: 385329 enctime: 3.93
encoding rcpsp/j60.sm/j6019_5.sm nv: 36806 nc: 88054 enctime: 0.55
c File: j6019_5.smnaivebi2.wcnf
c optimal
c final solution cost: 50
c CPU time: 1.126799
s OPTIMUM FOUND

c File: j6019_5.smbi2.wcnf
c optimal
c final solution cost: 50
c CPU time: 0.165797
s OPTIMUM FOUND


rcpsp/heur_output_bi_constraints/Log=2/heurj60.txt
encoding rcpsp/j60.sm/j6019_6.sm nv: 168756 nc: 411880 enctime: 4.17
encoding rcpsp/j60.sm/j6019_6.sm nv: 35424 nc: 84512 enctime: 0.53
c File: j6019_6.smnaivebi2.wcnf
c optimal
c final solution cost: 58
c CPU time: 1.078985
s OPTIMUM FOUND

c File: j6019_6.smbi2.wcnf
c optimal
c final solution cost: 58
c CPU time: 0.114535
s OPTIMUM FOUND


rcpsp/heur_output_bi_constraints/Log=2/heurj60.txt
encoding rcpsp/j60.sm/j6019_7.sm nv: 175380 nc: 406778 enctime: 3.83
encoding rcpsp/j60.sm/j6019_7.sm nv: 32745 nc: 74220 enctime: 0.47
c File: j6019_7.smnaivebi2.wcnf
c optimal
c final solution cost: 48
c CPU time: 0.911057
s OPTIMUM FOUND

c File: j6019_7.smbi2.wcnf
c optimal
c final solution cost: 48
c CPU time: 0.077169
s OPTIMUM FOUND


rcpsp/heur_output_bi_constraints/Log=2/heurj60.txt
encoding rcpsp/j60.sm/j6019_8.sm nv: 154380 nc: 377137 enctime: 3.89
encoding rcpsp/j60.sm/j6019_8.sm nv: 35805 nc: 85672 enctime: 0.54
c File: j6019_8.smnaivebi2.wcnf
c optimal
c final solution cost: 62
c CPU time: 1.825488
s OPTIMUM FOUND

c File: j6019_8.smbi2.wcnf
c optimal
c final solution cost: 62
c CPU time: 0.220170
s OPTIMUM FOUND


rcpsp/heur_output_bi_constraints/Log=2/heurj60.txt
encoding rcpsp/j60.sm/j6019_9.sm nv: 177500 nc: 431496 enctime: 4.44
encoding rcpsp/j60.sm/j6019_9.sm nv: 35000 nc: 82941 enctime: 0.52
c File: j6019_9.smnaivebi2.wcnf
c optimal
c final solution cost: 60
c CPU time: 1.120918
s OPTIMUM FOUND

c File: j6019_9.smbi2.wcnf
c optimal
c final solution cost: 60
c CPU time: 0.111395
s OPTIMUM FOUND


rcpsp/heur_output_bi_constraints/Log=2/heurj60.txt
encoding rcpsp/j60.sm/j601_9.sm nv: 128625 nc: 332048 enctime: 3.38
encoding rcpsp/j60.sm/j601_9.sm nv: 29250 nc: 73673 enctime: 0.46
c File: j601_9.smnaivebi2.wcnf
c optimal
c final solution cost: 61
c CPU time: 9.742632
s OPTIMUM FOUND

c File: j601_9.smbi2.wcnf
c optimal
c final solution cost: 61
c CPU time: 0.333301
s OPTIMUM FOUND


rcpsp/heur_output_bi_constraints/Log=2/heurj60.txt
encoding rcpsp/j60.sm/j6020_10.sm nv: 181485 nc: 425418 enctime: 4.26
encoding rcpsp/j60.sm/j6020_10.sm nv: 39405 nc: 90570 enctime: 0.56
c File: j6020_10.smnaivebi2.wcnf
c optimal
c final solution cost: 61
c CPU time: 0.926120
s OPTIMUM FOUND

c File: j6020_10.smbi2.wcnf
c optimal
c final solution cost: 61
c CPU time: 0.101248
s OPTIMUM FOUND


rcpsp/heur_output_bi_constraints/Log=2/heurj60.txt
encoding rcpsp/j60.sm/j6020_1.sm nv: 205800 nc: 477054 enctime: 4.61
encoding rcpsp/j60.sm/j6020_1.sm nv: 39600 nc: 89808 enctime: 0.56
c File: j6020_1.smnaivebi2.wcnf
c optimal
c final solution cost: 60
c CPU time: 1.022522
s OPTIMUM FOUND

c File: j6020_1.smbi2.wcnf
c optimal
c final solution cost: 60
c CPU time: 0.091196
s OPTIMUM FOUND


rcpsp/heur_output_bi_constraints/Log=2/heurj60.txt
encoding rcpsp/j60.sm/j6020_2.sm nv: 136697 nc: 321839 enctime: 3.14
encoding rcpsp/j60.sm/j6020_2.sm nv: 31691 nc: 73199 enctime: 0.46
c File: j6020_2.smnaivebi2.wcnf
c optimal
c final solution cost: 55
c CPU time: 0.735810
s OPTIMUM FOUND

c File: j6020_2.smbi2.wcnf
c optimal
c final solution cost: 55
c CPU time: 0.081758
s OPTIMUM FOUND


rcpsp/heur_output_bi_constraints/Log=2/heurj60.txt
encoding rcpsp/j60.sm/j6020_3.sm nv: 226501 nc: 521179 enctime: 5.08
encoding rcpsp/j60.sm/j6020_3.sm nv: 40887 nc: 91893 enctime: 0.41
c File: j6020_3.smnaivebi2.wcnf
c optimal
c final solution cost: 59
c CPU time: 1.120274
s OPTIMUM FOUND

c File: j6020_3.smbi2.wcnf
c optimal
c final solution cost: 59
c CPU time: 0.096969
s OPTIMUM FOUND


rcpsp/heur_output_bi_constraints/Log=2/heurj60.txt
encoding rcpsp/j60.sm/j6020_4.sm nv: 221028 nc: 504340 enctime: 4.84
encoding rcpsp/j60.sm/j6020_4.sm nv: 56724 nc: 127600 enctime: 0.77
c File: j6020_4.smnaivebi2.wcnf
c optimal
c final solution cost: 85
c CPU time: 1.133118
s OPTIMUM FOUND

c File: j6020_4.smbi2.wcnf
c optimal
c final solution cost: 85
c CPU time: 0.159525
s OPTIMUM FOUND


rcpsp/heur_output_bi_constraints/Log=2/heurj60.txt
encoding rcpsp/j60.sm/j6020_5.sm nv: 187824 nc: 446392 enctime: 4.48
encoding rcpsp/j60.sm/j6020_5.sm nv: 37128 nc: 86212 enctime: 0.54
c File: j6020_5.smnaivebi2.wcnf
c optimal
c final solution cost: 64
c CPU time: 1.293721
s OPTIMUM FOUND

c File: j6020_5.smbi2.wcnf
c optimal
c final solution cost: 64
c CPU time: 0.118295
s OPTIMUM FOUND


rcpsp/heur_output_bi_constraints/Log=2/heurj60.txt
encoding rcpsp/j60.sm/j6020_6.sm nv: 210858 nc: 489677 enctime: 4.79
encoding rcpsp/j60.sm/j6020_6.sm nv: 63444 nc: 145553 enctime: 0.89
c File: j6020_6.smnaivebi2.wcnf
c optimal
c final solution cost: 62
c CPU time: 1.041849
s OPTIMUM FOUND

c File: j6020_6.smbi2.wcnf
c optimal
c final solution cost: 62
c CPU time: 0.175308
s OPTIMUM FOUND


rcpsp/heur_output_bi_constraints/Log=2/heurj60.txt
encoding rcpsp/j60.sm/j6020_7.sm nv: 209902 nc: 484907 enctime: 4.58
encoding rcpsp/j60.sm/j6020_7.sm nv: 42746 nc: 96885 enctime: 0.61
c File: j6020_7.smnaivebi2.wcnf
c optimal
c final solution cost: 61
c CPU time: 1.065645
s OPTIMUM FOUND

c File: j6020_7.smbi2.wcnf
c optimal
c final solution cost: 61
c CPU time: 0.110893
s OPTIMUM FOUND


rcpsp/heur_output_bi_constraints/Log=2/heurj60.txt
encoding rcpsp/j60.sm/j6020_8.sm nv: 178856 nc: 412031 enctime: 4.02
encoding rcpsp/j60.sm/j6020_8.sm nv: 37356 nc: 84281 enctime: 0.52
c File: j6020_8.smnaivebi2.wcnf
c optimal
c final solution cost: 59
c CPU time: 0.871084
s OPTIMUM FOUND

c File: j6020_8.smbi2.wcnf
c optimal
c final solution cost: 59
c CPU time: 0.085814
s OPTIMUM FOUND


rcpsp/heur_output_bi_constraints/Log=2/heurj60.txt
encoding rcpsp/j60.sm/j6020_9.sm nv: 180411 nc: 444784 enctime: 4.77
encoding rcpsp/j60.sm/j6020_9.sm nv: 39760 nc: 95845 enctime: 0.44
c File: j6020_9.smnaivebi2.wcnf
c optimal
c final solution cost: 65
c CPU time: 1.096097
s OPTIMUM FOUND

c File: j6020_9.smbi2.wcnf
c optimal
c final solution cost: 65
c CPU time: 0.127976
s OPTIMUM FOUND


